c Lingeling SAT Solver
c 
c Version azf 92032848c138b2f33629ad24394d60a3787a1046
c 
c Copyright (C) 2010-2014 Armin Biere JKU Linz Austria.
c All rights reserved.
c 
c released Don Mai 22 22:08:00 CEST 2014
c compiled Mon Oct  6 05:55:43 PDT 2014
c 
c gcc (Ubuntu 4.8.2-19ubuntu1) 4.8.2
c -Wall -O3 -DNDBLSCR -DNLGLOG -DNDEBUG -DNCHKSOL -DNLGLPICOSAT -DNLGLDRUPLIG
c -DNLGLYALSAT
c Linux ubuntu 3.13.0-32-generic x86_64
c 
c reading input file benchmark-sat/translations/gc-queen9_9-9.cnf
c no embedded options
c found 'p cnf 729 22005' header
c read 729 variables, 22005 clauses, 44577 literals in 0.00 seconds
c 
c  seconds         irredundant          redundant clauses agility   height
c          variables clauses conflicts large ternary binary    glue         MB
c 
c S    0.0     729    22005         0       0      0     0   0  0.0   0.0    1
c S    1.0     648     9504     17140    6210      0  2268  16 26.3  43.6    4
c P    2.0     648     9504     42000    2535      0  2268  15 26.8  43.8    2
c S    5.0     648     9504    109321    6926      0  2268  14 30.5  47.8    3
c S   10.0     648     9504    217125    8972      0  2268  15 30.0  46.7    5
c S   20.0     648     9504    393094   13795      0  2268  15 30.7  47.9    6
c S   30.0     648     9504    532094   17414      0  2268  16 28.9  46.0   13
c S   40.0     648     9504    709493    5356      0  2268  14 27.3  46.0    4
c S   50.0     648     9504    914762   18543      0  2268  15 26.3  43.2    8
c S   60.1     648     9504   1072862   27678      0  2268  14 26.1  42.1   13
c S  120.0     648     9504   1914867   38975      0  2268  14 27.9  42.3   18
c S  180.1     648     9504   2465170   54832      0  2268  15 29.2  43.0   19
c S  240.0     648     9504   3354459    4736      0  2268  14 28.8  42.6    3
c S  300.0     648     9504   4330731   28714      0  2268  15 29.0  42.9    8
c S  600.1     648     9504   7800673   51267      0  2268  15 34.0  47.6   20
c S  900.1     648     9504  10239630   69252      0  2268  15 37.7  52.0   23
